6061
6102
5955
6109
6056
6139
6093
6079
6061
6101
6022
6097
6045
6103
6024
6031
6057
5999
6125
6048
6074
5968
6018
6167
6057
6162
6125
6040
6105
6125
6001
6044
6073
6136
6091
6095
6104
6109
6055
6109
6081
6039
6044
5970
6053
6073
6074
6035
6028
5974
6016
6110
6133
6131
6090
6138
6023
6053
5973
6018
6098
6083
6102
6100
6125
6077
6107
6131
6075
6081
6068
6064
6138
6059
6041
6091
6062
6085
6110
6086
6012
6000
6114
6130
6046
6010
6059
6082
6156
6067
6109
5975
5987
6146
6078
6002
6076
6132
6025
6064
